(declare-fun temp109_1 () (_ BitVec 64))
(declare-fun temp109_2 () (_ BitVec 64))
(declare-fun var201811 () (_ BitVec 64))
(declare-fun k!0 () Bool)
(declare-fun ARGNAME_input_NAMEEND_DIM () (_ BitVec 64))
(declare-fun temp109_3 () (_ BitVec 64))
(declare-fun var136001 () (_ BitVec 64))
(declare-fun temp109_4 () (_ BitVec 64))
(declare-fun temp109_5 () (_ BitVec 64))
(declare-fun ARGNAME_input_NAMEEND_DIMSIZE
             ()
             (Array (_ BitVec 64) (_ BitVec 64)))
(declare-fun temp109_6 () (_ BitVec 64))
(declare-fun temp109_7 () (_ BitVec 64))
(declare-fun temp109_8 () (_ BitVec 64))
(declare-fun temp109_9 () (_ BitVec 64))
(declare-fun temp109_10 () (_ BitVec 64))
(declare-fun temp109_11 () (_ BitVec 64))
(declare-fun temp109_12 () (_ BitVec 64))
(declare-fun temp109_13 () (_ BitVec 64))
(declare-fun temp109_14 () (_ BitVec 64))
(declare-fun temp109_15 () (_ BitVec 64))
(declare-fun temp109_16 () (_ BitVec 64))
(declare-fun temp109_17 () (_ BitVec 64))
(declare-fun temp109_18 () (_ BitVec 64))
(declare-fun temp109_19 () (_ BitVec 64))
(declare-fun temp109_20 () (_ BitVec 64))
(declare-fun temp109_21 () (_ BitVec 64))
(declare-fun temp109_22 () (_ BitVec 64))
(declare-fun temp109_23 () (_ BitVec 64))
(declare-fun temp109_24 () (_ BitVec 64))
(declare-fun var136000 () (_ BitVec 64))
(declare-fun temp109_25 () (_ BitVec 64))
(declare-fun var136003 () (_ BitVec 64))
(declare-fun temp109_26 () (_ BitVec 64))
(declare-fun temp109_27 () (_ BitVec 64))
(declare-fun temp109_28 () (_ BitVec 64))
(declare-fun var136002 () (_ BitVec 64))
(declare-fun var136004 () (_ BitVec 64))
(declare-fun temp109_29 () (_ BitVec 64))
(declare-fun temp109_30 () (_ BitVec 64))
(declare-fun var265930 () (_ BitVec 64))
(declare-fun temp109_31 () (_ BitVec 64))
(declare-fun temp109_32 () (_ BitVec 64))
(declare-fun var70465 () (_ BitVec 64))
(declare-fun temp109_33 () (_ BitVec 64))
(declare-fun temp109_34 () (_ BitVec 64))
(declare-fun temp109_35 () (_ BitVec 64))
(declare-fun var83043 () (_ BitVec 64))
(declare-fun temp109_36 () (_ BitVec 64))
(declare-fun temp109_37 () (_ BitVec 64))
(declare-fun temp109_39 () (_ BitVec 64))
(declare-fun temp109_38 () (_ BitVec 64))
(declare-fun temp109_40 () (_ BitVec 64))
(declare-fun var463683 () (_ BitVec 64))
(declare-fun temp109_41 () (_ BitVec 64))
(declare-fun temp109_42 () (_ BitVec 64))
(declare-fun temp109_43 () (_ BitVec 64))
(declare-fun var476302 () (_ BitVec 64))
(declare-fun temp109_44 () (_ BitVec 64))
(declare-fun var463681 () (_ BitVec 64))
(declare-fun temp109_45 () (_ BitVec 64))
(declare-fun temp109_46 () (_ BitVec 64))
(declare-fun temp109_47 () (_ BitVec 64))
(declare-fun var476305 () (_ BitVec 64))
(declare-fun temp109_49 () (_ BitVec 64))
(declare-fun temp109_48 () (_ BitVec 64))
(declare-fun temp109_51 () (_ BitVec 64))
(declare-fun temp109_50 () (_ BitVec 64))
(declare-fun temp109_52 () (_ BitVec 64))
(declare-fun var1644803 () (_ BitVec 64))
(declare-fun temp109_53 () (_ BitVec 64))
(declare-fun var1723927 () (_ BitVec 64))
(declare-fun temp109_54 () (_ BitVec 64))
(declare-fun var1723928 () (_ BitVec 64))
(declare-fun temp109_55 () (_ BitVec 64))
(declare-fun var738716 () (_ BitVec 64))
(declare-fun temp109_56 () (_ BitVec 64))
(declare-fun var738718 () (_ BitVec 64))
(declare-fun temp109_57 () (_ BitVec 64))
(declare-fun var2182718 () (_ BitVec 64))
(declare-fun temp109_58 () (_ BitVec 64))
(declare-fun var2639849 () (_ BitVec 64))
(declare-fun temp109_59 () (_ BitVec 64))
(declare-fun var3295262 () (_ BitVec 64))
(declare-fun temp109_61 () (_ BitVec 64))
(declare-fun temp109_60 () (_ BitVec 64))
(declare-fun temp109_62 () (_ BitVec 64))
(declare-fun var738717 () (_ BitVec 64))
(declare-fun temp109_63 () (_ BitVec 64))
(declare-fun var738940 () (_ BitVec 64))
(declare-fun temp109_65 () (_ BitVec 64))
(declare-fun var4017726 () (_ BitVec 64))
(declare-fun temp109_66 () (_ BitVec 64))
(declare-fun var4278249 () (_ BitVec 64))
(declare-fun temp109_67 () (_ BitVec 64))
(declare-fun var4995631 () (_ BitVec 64))
(declare-fun temp109_68 () (_ BitVec 64))
(declare-fun var4995632 () (_ BitVec 64))
(declare-fun temp109_69 () (_ BitVec 64))
(declare-fun var5064734 () (_ BitVec 64))
(declare-fun temp109_70 () (_ BitVec 64))
(declare-fun var5130270 () (_ BitVec 64))
(declare-fun temp109_71 () (_ BitVec 64))
(declare-fun var5787198 () (_ BitVec 64))
(declare-fun temp109_72 () (_ BitVec 64))
(declare-fun var6431563 () (_ BitVec 64))
(declare-fun temp109_73 () (_ BitVec 64))
(declare-fun var6497099 () (_ BitVec 64))
(declare-fun temp109_74 () (_ BitVec 64))
(declare-fun var6628225 () (_ BitVec 64))
(declare-fun temp109_75 () (_ BitVec 64))
(declare-fun var6628226 () (_ BitVec 64))
(declare-fun temp109_76 () (_ BitVec 64))
(declare-fun var6628227 () (_ BitVec 64))
(declare-fun temp109_77 () (_ BitVec 64))
(declare-fun var7215341 () (_ BitVec 64))
(declare-fun temp109_78 () (_ BitVec 64))
(declare-fun var7813679 () (_ BitVec 64))
(declare-fun temp109_79 () (_ BitVec 64))
(declare-fun var7813680 () (_ BitVec 64))
(declare-fun temp109_80 () (_ BitVec 64))
(declare-fun var8207629 () (_ BitVec 64))
(declare-fun temp109_81 () (_ BitVec 64))
(declare-fun var8338701 () (_ BitVec 64))
(declare-fun temp109_82 () (_ BitVec 64))
(declare-fun var8666381 () (_ BitVec 64))
(declare-fun temp109_83 () (_ BitVec 64))
(declare-fun var8721683 () (_ BitVec 64))
(declare-fun temp109_85 () (_ BitVec 64))
(declare-fun temp109_84 () (_ BitVec 64))
(assert (= temp109_1 #x0000000000000002))
(assert (= var201811
   (ite (bvslt ARGNAME_input_NAMEEND_DIM temp109_1)
        #x0000000000000001
        #x0000000000000000)))
(assert (= temp109_2 #x0000000000000000))
(assert (= var201811 temp109_2))
(assert (= temp109_3 #xffffffffffffffff))
(assert (= var136001 temp109_3))
(assert (= temp109_4 #x0000000000000000))
(assert (= temp109_5 temp109_4))
(assert (= temp109_6 (select ARGNAME_input_NAMEEND_DIMSIZE temp109_5)))
(assert (= temp109_7 #x0000000000000001))
(assert (= temp109_8 temp109_7))
(assert (= temp109_9 (select ARGNAME_input_NAMEEND_DIMSIZE temp109_8)))
(assert (= temp109_10 #x0000000000000002))
(assert (= temp109_11 temp109_10))
(assert (= temp109_12 (select ARGNAME_input_NAMEEND_DIMSIZE temp109_11)))
(assert (= temp109_13 #x0000000000000003))
(assert (= temp109_14 temp109_13))
(assert (= temp109_15 (select ARGNAME_input_NAMEEND_DIMSIZE temp109_14)))
(assert (= temp109_16 #x0000000000000004))
(assert (= temp109_17 temp109_16))
(assert (= temp109_18 (select ARGNAME_input_NAMEEND_DIMSIZE temp109_17)))
(assert (= temp109_19 #x0000000000000005))
(assert (= temp109_20 temp109_19))
(assert (= temp109_21 (select ARGNAME_input_NAMEEND_DIMSIZE temp109_20)))
(assert (= temp109_22 #x0000000000000000))
(assert (= temp109_23
   (ite (bvslt var136001 temp109_22)
        (bvadd ARGNAME_input_NAMEEND_DIM var136001)
        var136001)))
(assert (= temp109_24 (select ARGNAME_input_NAMEEND_DIMSIZE temp109_23)))
(assert (= var136000 temp109_24))
(assert (bvslt (ite (bvslt var136001 temp109_22)
            (bvadd ARGNAME_input_NAMEEND_DIM var136001)
            var136001)
       ARGNAME_input_NAMEEND_DIM))
(assert (= temp109_25 #xfffffffffffffffe))
(assert (= var136003 temp109_25))
(assert (= temp109_26 #x0000000000000000))
(assert (= temp109_27
   (ite (bvslt var136003 temp109_26)
        (bvadd ARGNAME_input_NAMEEND_DIM var136003)
        var136003)))
(assert (= temp109_28 (select ARGNAME_input_NAMEEND_DIMSIZE temp109_27)))
(assert (= var136002 temp109_28))
(assert (bvslt (ite (bvslt var136003 temp109_26)
            (bvadd ARGNAME_input_NAMEEND_DIM var136003)
            var136003)
       ARGNAME_input_NAMEEND_DIM))
(assert (= var136004
   (ite (= var136000 var136002) #x0000000000000001 #x0000000000000000)))
(assert (= temp109_29 #x0000000000000001))
(assert (= var136004 temp109_29))
(assert (= temp109_30 #x0000000000000001))
(assert (= var265930 temp109_30))
(assert (= temp109_31 #x0000000000000001))
(assert (= var265930 temp109_31))
(assert (= temp109_32 #xffffffffffffffff))
(assert (= var70465 temp109_32))
(assert (= temp109_33 #x0000000000000000))
(assert (= temp109_34
   (ite (bvslt var70465 temp109_33)
        (bvadd ARGNAME_input_NAMEEND_DIM var70465)
        var70465)))
(assert (= temp109_35 (select ARGNAME_input_NAMEEND_DIMSIZE temp109_34)))
(assert (= var83043 temp109_35))
(assert (bvslt (ite (bvslt var70465 temp109_33)
            (bvadd ARGNAME_input_NAMEEND_DIM var70465)
            var70465)
       ARGNAME_input_NAMEEND_DIM))
(assert (= temp109_36 #x0000000000000000))
(assert (distinct var83043 temp109_36))
(assert (= temp109_37 #x0000000000000001))
(assert (distinct var83043 temp109_37))
(assert (= temp109_39 #xffffffffffffffff))
(assert (= temp109_38 temp109_39))
(assert (= temp109_40 #xfffffffffffffffe))
(assert (= var463683 temp109_40))
(assert (= temp109_41 #x0000000000000000))
(assert (= temp109_42
   (ite (bvslt var463683 temp109_41)
        (bvadd ARGNAME_input_NAMEEND_DIM var463683)
        var463683)))
(assert (= temp109_43 (select ARGNAME_input_NAMEEND_DIMSIZE temp109_42)))
(assert (= var476302 temp109_43))
(assert (bvslt (ite (bvslt var463683 temp109_41)
            (bvadd ARGNAME_input_NAMEEND_DIM var463683)
            var463683)
       ARGNAME_input_NAMEEND_DIM))
(assert (= temp109_44 #xffffffffffffffff))
(assert (= var463681 temp109_44))
(assert (= temp109_45 #x0000000000000000))
(assert (= temp109_46
   (ite (bvslt var463681 temp109_45)
        (bvadd ARGNAME_input_NAMEEND_DIM var463681)
        var463681)))
(assert (= temp109_47 (select ARGNAME_input_NAMEEND_DIMSIZE temp109_46)))
(assert (= var476305 temp109_47))
(assert (bvslt (ite (bvslt var463681 temp109_45)
            (bvadd ARGNAME_input_NAMEEND_DIM var463681)
            var463681)
       ARGNAME_input_NAMEEND_DIM))
(assert (= temp109_49 #x0000000000000003))
(assert (= temp109_48 temp109_49))
(assert (= temp109_51 #xfffffffffffffffe))
(assert (= temp109_50 temp109_51))
(assert (= temp109_52 #x0000000000000000))
(assert (= var1644803 temp109_52))
(assert (= temp109_53 #xffffffffffffffff))
(assert (= var1723927 temp109_53))
(assert (= temp109_54 #x0000000000000000))
(assert (= var1723928 temp109_54))
(assert (= temp109_55 #x0000000000000000))
(assert (= var738716 temp109_55))
(assert (= temp109_56 #x0000000000000000))
(assert (= var738718
   (ite (= var738716 temp109_56) #x0000000000000001 #x0000000000000000)))
(assert (= temp109_57 #x0000000000000001))
(assert (= var738718 temp109_57))
(assert (= var2182718 var738716))
(assert (= temp109_58 #xffffffffffffffff))
(assert (= var2639849 temp109_58))
(assert (= temp109_59 #x0000000000000000))
(assert (= var3295262 temp109_59))
(assert (= temp109_61 #x0000000000000005))
(assert (= temp109_60 temp109_61))
(assert (= temp109_62 #x0000000000000001))
(assert (= var738717 (bvadd var738716 temp109_62)))
(assert (= temp109_63 #x0000000000000005))
(assert (= var738940
   (ite (= var738717 temp109_63) #x0000000000000001 #x0000000000000000)))
(assert (= temp109_65 #x0000000000000004))
(assert (= var4017726 temp109_65))
(assert (= temp109_66 #xffffffffffffffff))
(assert (= var4278249 temp109_66))
(assert (= temp109_67 #x0000000000000000))
(assert (= var4995631 temp109_67))
(assert (= temp109_68 #x0000000000000000))
(assert (= var4995632 temp109_68))
(assert (= temp109_69 #x0000000000000000))
(assert (= var5064734 temp109_69))
(assert (= temp109_70 #x0000000000000000))
(assert (= var5130270 temp109_70))
(assert (= temp109_71 #x0000000000000005))
(assert (= var5787198 temp109_71))
(assert (= temp109_72 #xffffffffffffffff))
(assert (= var6431563 temp109_72))
(assert (= temp109_73 #xffffffffffffffff))
(assert (= var6497099 temp109_73))
(assert (= temp109_74 #x0000000000000004))
(assert (= var6628225 temp109_74))
(assert (= temp109_75 #x0000000000000000))
(assert (= var6628226 temp109_75))
(assert (= temp109_76 #x0000000000000000))
(assert (= var6628227 temp109_76))
(assert (= temp109_77 #x0000000000000002))
(assert (= var7215341 temp109_77))
(assert (= temp109_78 #x0000000000000000))
(assert (= var7813679 temp109_78))
(assert (= temp109_79 #x0000000000000000))
(assert (= var7813680 temp109_79))
(assert (= temp109_80 #x0000000000000000))
(assert (= var8207629 temp109_80))
(assert (= temp109_81 #x0000000000000000))
(assert (= var8338701 temp109_81))
(assert (= temp109_82 #x0000000000000000))
(assert (= var8666381 temp109_82))
(assert (= temp109_83 #x0000000000000000))
(assert (= var8721683 temp109_83))
(assert (= temp109_85 #x0000000000000005))
(assert (= temp109_84 temp109_85))
(model-add temp109_1 () (_ BitVec 64) #x0000000000000002)
(model-add temp109_2 () (_ BitVec 64) #x0000000000000000)
(model-add var201811 () (_ BitVec 64) #x0000000000000000)
(model-del k!0)
(model-add ARGNAME_input_NAMEEND_DIM
           ()
           (_ BitVec 64)
           (ite (or k!0 (= #x0000000000000002 #x8000000000000000))
                #x0000000000000002
                (bvsub #x0000000000000002 #x0000000000000001)))






